objective value:                                11854
t_x_0                                               1 	(obj:29)
t_x_2                                               1 	(obj:5)
t_x_7                                               1 	(obj:8)
t_x_11                                              1 	(obj:29)
t_x_14                                              1 	(obj:26)
t_x_15                                              1 	(obj:28)
t_x_17                                              1 	(obj:40)
t_x_21                                              1 	(obj:4)
t_x_22                                              1 	(obj:37)
t_x_23                                              1 	(obj:11)
t_x_26                                              1 	(obj:15)
t_x_32                                              1 	(obj:42)
t_x_34                                              1 	(obj:22)
t_x_35                                              1 	(obj:26)
t_x_36                                              1 	(obj:28)
t_x_40                                              1 	(obj:39)
t_x_45                                              1 	(obj:8)
t_x_46                                              1 	(obj:24)
t_x_47                                              1 	(obj:36)
t_x_53                                              1 	(obj:4)
t_x_60                                              1 	(obj:36)
t_x_61                                              1 	(obj:16)
t_x_62                                              1 	(obj:2)
t_x_63                                              1 	(obj:2)
t_x_64                                              1 	(obj:14)
t_x_67                                              1 	(obj:33)
t_x_68                                              1 	(obj:19)
t_x_70                                              1 	(obj:0)
t_x_71                                              1 	(obj:23)
t_x_72                                              1 	(obj:30)
t_x_74                                              1 	(obj:20)
t_x_75                                              1 	(obj:15)
t_x_82                                              1 	(obj:46)
t_x_83                                              1 	(obj:21)
t_x_86                                              1 	(obj:77)
t_x_87                                              1 	(obj:5)
t_x_90                                              1 	(obj:16)
t_x_94                                              1 	(obj:27)
t_x_106                                             1 	(obj:16)
t_x_107                                             1 	(obj:4)
t_x_108                                             1 	(obj:16)
t_x_110                                             1 	(obj:12)
t_x_120                                             1 	(obj:14)
t_x_128                                             1 	(obj:5)
t_x_132                                             1 	(obj:36)
t_x_133                                             1 	(obj:52)
t_x_137                                             1 	(obj:14)
t_x_139                                             1 	(obj:10)
t_x_140                                             1 	(obj:4)
t_x_148                                             1 	(obj:8)
t_x_151                                             1 	(obj:13)
t_x_154                                             1 	(obj:15)
t_x_161                                             1 	(obj:44)
t_x_164                                             1 	(obj:47)
t_x_165                                             1 	(obj:31)
t_x_166                                             1 	(obj:3)
t_x_169                                             1 	(obj:5)
t_x_171                                             1 	(obj:27)
t_x_172                                             1 	(obj:18)
t_x_175                                             1 	(obj:0)
t_x_182                                             1 	(obj:9)
t_x_191                                             1 	(obj:18)
t_x_192                                             1 	(obj:9)
t_x_195                                             1 	(obj:1)
t_x_196                                             1 	(obj:17)
t_x_203                                             1 	(obj:9)
t_x_204                                             1 	(obj:9)
t_x_206                                             1 	(obj:40)
t_x_209                                             1 	(obj:4)
t_x_218                                             1 	(obj:24)
t_x_224                                             1 	(obj:20)
t_x_225                                             1 	(obj:49)
t_x_227                                             1 	(obj:58)
t_x_229                                             1 	(obj:10)
t_x_236                                             1 	(obj:32)
t_x_237                                             1 	(obj:30)
t_x_238                                             1 	(obj:12)
t_x_240                                             1 	(obj:12)
t_x_243                                             1 	(obj:28)
t_x_244                                             1 	(obj:0)
t_x_250                                             1 	(obj:23)
t_x_251                                             1 	(obj:20)
t_x_252                                             1 	(obj:32)
t_x_254                                             1 	(obj:12)
t_x_262                                             1 	(obj:23)
t_x_270                                             1 	(obj:10)
t_x_272                                             1 	(obj:28)
t_x_278                                             1 	(obj:27)
t_x_280                                             1 	(obj:20)
t_x_281                                             1 	(obj:1)
t_x_282                                             1 	(obj:39)
t_x_291                                             1 	(obj:14)
t_x_295                                             1 	(obj:8)
t_x_296                                             1 	(obj:17)
t_x_297                                             1 	(obj:24)
t_x_298                                             1 	(obj:4)
t_x_305                                             1 	(obj:20)
t_x_308                                             1 	(obj:34)
t_x_309                                             1 	(obj:46)
t_x_310                                             1 	(obj:2)
t_x_312                                             1 	(obj:37)
t_x_315                                             1 	(obj:25)
t_x_317                                             1 	(obj:27)
t_x_320                                             1 	(obj:24)
t_x_321                                             1 	(obj:20)
t_x_326                                             1 	(obj:3)
t_x_329                                             1 	(obj:22)
t_x_330                                             1 	(obj:9)
t_x_331                                             1 	(obj:16)
t_x_333                                             1 	(obj:32)
t_x_335                                             1 	(obj:19)
t_x_339                                             1 	(obj:7)
t_x_342                                             1 	(obj:20)
t_x_344                                             1 	(obj:1)
t_x_349                                             1 	(obj:13)
t_x_351                                             1 	(obj:52)
t_x_354                                             1 	(obj:1)
t_x_356                                             1 	(obj:10)
t_x_358                                             1 	(obj:12)
t_x_359                                             1 	(obj:4)
t_x_360                                             1 	(obj:8)
t_x_363                                             1 	(obj:29)
t_x_364                                             1 	(obj:5)
t_x_365                                             1 	(obj:24)
t_x_372                                             1 	(obj:38)
t_x_375                                             1 	(obj:11)
t_x_376                                             1 	(obj:31)
t_x_378                                             1 	(obj:11)
t_x_380                                             1 	(obj:24)
t_x_383                                             1 	(obj:45)
t_x_384                                             1 	(obj:25)
t_x_388                                             1 	(obj:6)
t_x_397                                             1 	(obj:9)
t_x_398                                             1 	(obj:5)
t_x_401                                             1 	(obj:9)
t_x_409                                             1 	(obj:3)
t_x_413                                             1 	(obj:42)
t_x_414                                             1 	(obj:9)
t_x_415                                             1 	(obj:27)
t_x_417                                             1 	(obj:29)
t_x_429                                             1 	(obj:38)
t_x_430                                             1 	(obj:1)
t_x_434                                             1 	(obj:29)
t_x_437                                             1 	(obj:25)
t_x_438                                             1 	(obj:44)
t_x_452                                             1 	(obj:24)
t_x_453                                             1 	(obj:23)
t_x_454                                             1 	(obj:2)
t_x_461                                             1 	(obj:46)
t_x_462                                             1 	(obj:26)
t_x_465                                             1 	(obj:13)
t_x_466                                             1 	(obj:1)
t_x_467                                             1 	(obj:31)
t_x_475                                             1 	(obj:11)
t_x_477                                             1 	(obj:12)
t_x_480                                             1 	(obj:43)
t_x_481                                             1 	(obj:7)
t_x_485                                             1 	(obj:15)
t_x_486                                             1 	(obj:0)
t_x_488                                             1 	(obj:5)
t_x_496                                             1 	(obj:18)
t_x_499                                             1 	(obj:7)
t_x_501                                             1 	(obj:17)
t_x_502                                             1 	(obj:8)
t_x_511                                             1 	(obj:15)
t_x_517                                             1 	(obj:19)
t_x_520                                             1 	(obj:3)
t_x_521                                             1 	(obj:0)
t_x_523                                             1 	(obj:26)
t_x_529                                             1 	(obj:15)
t_x_532                                             1 	(obj:28)
t_x_534                                             1 	(obj:53)
t_x_539                                             1 	(obj:15)
t_x_540                                             1 	(obj:27)
t_x_545                                             1 	(obj:36)
t_x_546                                             1 	(obj:19)
t_x_548                                             1 	(obj:3)
t_x_554                                             1 	(obj:33)
t_x_562                                             1 	(obj:24)
t_x_563                                             1 	(obj:35)
t_x_565                                             1 	(obj:6)
t_x_569                                             1 	(obj:25)
t_x_571                                             1 	(obj:7)
t_x_576                                             1 	(obj:3)
t_x_578                                             1 	(obj:17)
t_x_579                                             1 	(obj:15)
t_x_583                                             1 	(obj:27)
t_x_584                                             1 	(obj:6)
t_x_585                                             1 	(obj:8)
t_x_587                                             1 	(obj:58)
t_x_592                                             1 	(obj:16)
t_x_602                                             1 	(obj:1)
t_x_603                                             1 	(obj:3)
t_x_605                                             1 	(obj:20)
t_x_607                                             1 	(obj:22)
t_x_615                                             1 	(obj:4)
t_x_617                                             1 	(obj:5)
t_x_620                                             1 	(obj:14)
t_x_623                                             1 	(obj:23)
t_x_625                                             1 	(obj:54)
t_x_626                                             1 	(obj:7)
t_x_627                                             1 	(obj:2)
t_x_634                                             1 	(obj:22)
t_x_639                                             1 	(obj:18)
t_x_645                                             1 	(obj:30)
t_x_647                                             1 	(obj:17)
t_x_657                                             1 	(obj:10)
t_x_659                                             1 	(obj:2)
t_x_664                                             1 	(obj:36)
t_x_665                                             1 	(obj:48)
t_x_668                                             1 	(obj:17)
t_x_670                                             1 	(obj:28)
t_x_671                                             1 	(obj:35)
t_x_673                                             1 	(obj:17)
t_x_677                                             1 	(obj:30)
t_x_686                                             1 	(obj:3)
t_x_687                                             1 	(obj:5)
t_x_691                                             1 	(obj:19)
t_x_693                                             1 	(obj:15)
t_x_696                                             1 	(obj:20)
t_x_703                                             1 	(obj:28)
t_x_707                                             1 	(obj:2)
t_x_715                                             1 	(obj:5)
t_x_718                                             1 	(obj:7)
t_x_719                                             1 	(obj:17)
t_x_721                                             1 	(obj:26)
t_x_726                                             1 	(obj:13)
t_x_727                                             1 	(obj:20)
t_x_729                                             1 	(obj:46)
t_x_732                                             1 	(obj:15)
t_x_735                                             1 	(obj:17)
t_x_736                                             1 	(obj:10)
t_x_737                                             1 	(obj:28)
t_x_747                                             1 	(obj:7)
t_x_753                                             1 	(obj:3)
t_x_758                                             1 	(obj:26)
t_x_759                                             1 	(obj:17)
t_x_762                                             1 	(obj:1)
t_x_764                                             1 	(obj:25)
t_x_766                                             1 	(obj:29)
t_x_779                                             1 	(obj:22)
t_x_783                                             1 	(obj:54)
t_x_785                                             1 	(obj:6)
t_x_787                                             1 	(obj:23)
t_x_791                                             1 	(obj:8)
t_x_794                                             1 	(obj:24)
t_x_797                                             1 	(obj:60)
t_x_803                                             1 	(obj:23)
t_x_804                                             1 	(obj:17)
t_x_809                                             1 	(obj:35)
t_x_811                                             1 	(obj:3)
t_x_812                                             1 	(obj:15)
t_x_819                                             1 	(obj:33)
t_x_822                                             1 	(obj:7)
t_x_823                                             1 	(obj:5)
t_x_824                                             1 	(obj:12)
t_x_826                                             1 	(obj:0)
t_x_829                                             1 	(obj:32)
t_x_831                                             1 	(obj:5)
t_x_833                                             1 	(obj:6)
t_x_836                                             1 	(obj:10)
t_x_837                                             1 	(obj:28)
t_x_847                                             1 	(obj:10)
t_x_848                                             1 	(obj:34)
t_x_849                                             1 	(obj:4)
t_x_859                                             1 	(obj:16)
t_x_862                                             1 	(obj:10)
t_x_866                                             1 	(obj:17)
t_x_875                                             1 	(obj:7)
t_x_876                                             1 	(obj:10)
t_x_877                                             1 	(obj:17)
t_x_881                                             1 	(obj:48)
t_x_886                                             1 	(obj:9)
t_x_889                                             1 	(obj:0)
t_x_894                                             1 	(obj:16)
t_x_898                                             1 	(obj:37)
t_x_899                                             1 	(obj:0)
t_x_900                                             1 	(obj:1)
t_x_902                                             1 	(obj:12)
t_x_905                                             1 	(obj:15)
t_x_906                                             1 	(obj:25)
t_x_910                                             1 	(obj:19)
t_x_917                                             1 	(obj:6)
t_x_923                                             1 	(obj:29)
t_x_927                                             1 	(obj:21)
t_x_929                                             1 	(obj:6)
t_x_930                                             1 	(obj:22)
t_x_934                                             1 	(obj:3)
t_x_937                                             1 	(obj:18)
t_x_938                                             1 	(obj:4)
t_x_939                                             1 	(obj:30)
t_x_948                                             1 	(obj:0)
t_x_949                                             1 	(obj:22)
t_x_958                                             1 	(obj:14)
t_x_960                                             1 	(obj:8)
t_x_965                                             1 	(obj:51)
t_x_967                                             1 	(obj:9)
t_x_968                                             1 	(obj:25)
t_x_971                                             1 	(obj:14)
t_x_974                                             1 	(obj:18)
t_x_982                                             1 	(obj:10)
t_x_984                                             1 	(obj:65)
t_x_985                                             1 	(obj:2)
t_x_988                                             1 	(obj:37)
t_x_991                                             1 	(obj:19)
t_x_992                                             1 	(obj:3)
t_x_993                                             1 	(obj:1)
t_x_996                                             1 	(obj:24)
t_x_999                                             1 	(obj:11)
t_x_1002                                            1 	(obj:10)
t_x_1015                                            1 	(obj:35)
t_x_1017                                            1 	(obj:21)
t_x_1020                                            1 	(obj:0)
t_x_1022                                            1 	(obj:12)
t_x_1027                                            1 	(obj:22)
t_x_1030                                            1 	(obj:9)
t_x_1033                                            1 	(obj:26)
t_x_1044                                            1 	(obj:27)
t_x_1050                                            1 	(obj:8)
t_x_1058                                            1 	(obj:18)
t_x_1062                                            1 	(obj:7)
t_x_1065                                            1 	(obj:28)
t_x_1067                                            1 	(obj:22)
t_x_1068                                            1 	(obj:2)
t_x_1070                                            1 	(obj:0)
t_x_1073                                            1 	(obj:16)
t_x_1077                                            1 	(obj:11)
t_x_1078                                            1 	(obj:19)
t_x_1079                                            1 	(obj:7)
t_x_1085                                            1 	(obj:24)
t_x_1086                                            1 	(obj:6)
t_x_1095                                            1 	(obj:54)
t_x_1096                                            1 	(obj:17)
t_x_1097                                            1 	(obj:16)
t_x_1098                                            1 	(obj:4)
t_x_1102                                            1 	(obj:7)
t_x_1104                                            1 	(obj:18)
t_x_1109                                            1 	(obj:2)
t_x_1110                                            1 	(obj:13)
t_x_1111                                            1 	(obj:16)
t_x_1112                                            1 	(obj:7)
t_x_1113                                            1 	(obj:15)
t_x_1117                                            1 	(obj:30)
t_x_1121                                            1 	(obj:3)
t_x_1125                                            1 	(obj:14)
t_x_1128                                            1 	(obj:40)
t_x_1135                                            1 	(obj:14)
t_x_1143                                            1 	(obj:43)
t_x_1146                                            1 	(obj:23)
t_x_1148                                            1 	(obj:5)
t_x_1153                                            1 	(obj:37)
t_x_1155                                            1 	(obj:19)
t_x_1158                                            1 	(obj:6)
t_x_1162                                            1 	(obj:24)
t_x_1164                                            1 	(obj:0)
t_x_1169                                            1 	(obj:41)
t_x_1174                                            1 	(obj:26)
t_x_1181                                            1 	(obj:2)
t_x_1183                                            1 	(obj:41)
t_x_1186                                            1 	(obj:31)
t_x_1191                                            1 	(obj:7)
t_x_1197                                            1 	(obj:26)
t_x_1200                                            1 	(obj:14)
t_x_1203                                            1 	(obj:7)
t_x_1209                                            1 	(obj:40)
t_x_1210                                            1 	(obj:9)
t_x_1215                                            1 	(obj:25)
t_x_1216                                            1 	(obj:28)
t_x_1217                                            1 	(obj:27)
t_x_1218                                            1 	(obj:10)
t_x_1219                                            1 	(obj:19)
t_x_1228                                            1 	(obj:9)
t_x_1233                                            1 	(obj:19)
t_x_1234                                            1 	(obj:0)
t_x_1236                                            1 	(obj:5)
t_x_1241                                            1 	(obj:10)
t_x_1244                                            1 	(obj:45)
t_x_1249                                            1 	(obj:31)
t_x_1254                                            1 	(obj:13)
t_x_1255                                            1 	(obj:28)
t_x_1256                                            1 	(obj:51)
t_x_1263                                            1 	(obj:11)
t_x_1264                                            1 	(obj:7)
t_x_1267                                            1 	(obj:2)
t_x_1270                                            1 	(obj:9)
t_x_1272                                            1 	(obj:76)
t_x_1277                                            1 	(obj:20)
t_x_1278                                            1 	(obj:38)
t_x_1285                                            1 	(obj:17)
t_x_1286                                            1 	(obj:1)
t_x_1289                                            1 	(obj:11)
t_x_1292                                            1 	(obj:29)
t_x_1293                                            1 	(obj:22)
t_x_1296                                            1 	(obj:6)
t_x_1298                                            1 	(obj:27)
t_x_1300                                            1 	(obj:8)
t_x_1304                                            1 	(obj:6)
t_x_1307                                            1 	(obj:44)
t_x_1308                                            1 	(obj:31)
t_x_1310                                            1 	(obj:4)
t_x_1317                                            1 	(obj:3)
t_x_1319                                            1 	(obj:22)
t_x_1324                                            1 	(obj:12)
t_x_1325                                            1 	(obj:20)
t_x_1330                                            1 	(obj:45)
t_x_1331                                            1 	(obj:15)
t_x_1334                                            1 	(obj:8)
t_x_1339                                            1 	(obj:31)
t_x_1341                                            1 	(obj:14)
t_x_1342                                            1 	(obj:12)
t_x_1343                                            1 	(obj:10)
t_x_1355                                            1 	(obj:31)
t_x_1356                                            1 	(obj:28)
t_x_1362                                            1 	(obj:20)
t_x_1363                                            1 	(obj:17)
t_x_1364                                            1 	(obj:10)
t_x_1369                                            1 	(obj:37)
t_x_1371                                            1 	(obj:45)
t_x_1375                                            1 	(obj:8)
t_x_1378                                            1 	(obj:4)
t_x_1379                                            1 	(obj:13)
t_x_1380                                            1 	(obj:31)
t_x_1386                                            1 	(obj:16)
t_x_1390                                            1 	(obj:26)
t_x_1397                                            1 	(obj:27)
t_x_1402                                            1 	(obj:19)
t_x_1404                                            1 	(obj:17)
t_x_1405                                            1 	(obj:6)
t_x_1407                                            1 	(obj:17)
t_x_1409                                            1 	(obj:1)
t_x_1410                                            1 	(obj:11)
t_x_1412                                            1 	(obj:0)
t_x_1416                                            1 	(obj:18)
t_x_1417                                            1 	(obj:47)
t_x_1419                                            1 	(obj:45)
t_x_1421                                            1 	(obj:2)
t_x_1424                                            1 	(obj:3)
t_x_1426                                            1 	(obj:26)
t_x_1427                                            1 	(obj:8)
t_x_1433                                            1 	(obj:13)
t_x_1435                                            1 	(obj:32)
t_x_1436                                            1 	(obj:27)
t_x_1442                                            1 	(obj:8)
t_x_1445                                            1 	(obj:39)
t_x_1449                                            1 	(obj:4)
t_x_1452                                            1 	(obj:4)
t_x_1454                                            1 	(obj:6)
t_x_1464                                            1 	(obj:7)
t_x_1465                                            1 	(obj:17)
t_x_1470                                            1 	(obj:29)
t_x_1471                                            1 	(obj:32)
t_x_1474                                            1 	(obj:6)
t_x_1478                                            1 	(obj:61)
t_x_1481                                            1 	(obj:5)
t_x_1484                                            1 	(obj:15)
t_x_1492                                            1 	(obj:17)
t_x_1494                                            1 	(obj:3)
t_x_1498                                            1 	(obj:47)
t_x_1499                                            1 	(obj:31)
t_x_1504                                            1 	(obj:34)
t_x_1507                                            1 	(obj:14)
t_x_1509                                            1 	(obj:7)
t_x_1513                                            1 	(obj:8)
t_x_1514                                            1 	(obj:25)
t_x_1516                                            1 	(obj:63)
t_x_1518                                            1 	(obj:12)
t_x_1521                                            1 	(obj:31)
t_x_1526                                            1 	(obj:29)
t_x_1528                                            1 	(obj:24)
t_x_1537                                            1 	(obj:27)
t_x_1538                                            1 	(obj:46)
t_x_1544                                            1 	(obj:19)
t_x_1547                                            1 	(obj:35)
t_x_1550                                            1 	(obj:8)
t_x_1556                                            1 	(obj:11)
t_x_1557                                            1 	(obj:16)
t_x_1560                                            1 	(obj:6)
t_x_1561                                            1 	(obj:45)
t_x_1578                                            1 	(obj:19)
t_x_1580                                            1 	(obj:45)
t_x_1589                                            1 	(obj:45)
t_x_1590                                            1 	(obj:26)
t_x_1591                                            1 	(obj:17)
t_x_1592                                            1 	(obj:13)
t_x_1595                                            1 	(obj:4)
t_x_1599                                            1 	(obj:6)
t_x_1600                                            1 	(obj:2)
t_x_1602                                            1 	(obj:33)
t_x_1605                                            1 	(obj:30)
t_x_1609                                            1 	(obj:16)
t_x_1611                                            1 	(obj:9)
t_x_1614                                            1 	(obj:37)
t_x_1615                                            1 	(obj:15)
t_x_1623                                            1 	(obj:40)
t_x_1628                                            1 	(obj:1)
t_x_1633                                            1 	(obj:12)
t_x_1640                                            1 	(obj:24)
t_x_1647                                            1 	(obj:22)
t_x_1651                                            1 	(obj:11)
t_x_1652                                            1 	(obj:0)
t_x_1654                                            1 	(obj:6)
t_x_1657                                            1 	(obj:13)
t_x_1663                                            1 	(obj:51)
t_x_1670                                            1 	(obj:5)
t_x_1672                                            1 	(obj:20)
t_x_1675                                            1 	(obj:2)
t_x_1676                                            1 	(obj:57)
t_x_1679                                            1 	(obj:49)
t_x_1682                                            1 	(obj:0)
t_x_1683                                            1 	(obj:8)
t_x_1684                                            1 	(obj:68)
t_x_1695                                            1 	(obj:2)
t_x_1698                                            1 	(obj:25)
t_x_1701                                            1 	(obj:16)
t_x_1703                                            1 	(obj:21)
t_x_1706                                            1 	(obj:11)
t_x_1709                                            1 	(obj:1)
t_x_1711                                            1 	(obj:14)
t_x_1712                                            1 	(obj:14)
t_x_1722                                            1 	(obj:12)
t_x_1724                                            1 	(obj:18)
t_x_1725                                            1 	(obj:22)
t_x_1728                                            1 	(obj:30)
t_x_1731                                            1 	(obj:19)
t_x_1732                                            1 	(obj:3)
t_x_1733                                            1 	(obj:14)
t_x_1738                                            1 	(obj:24)
t_x_1742                                            1 	(obj:46)
t_x_1749                                            1 	(obj:2)
t_x_1750                                            1 	(obj:13)
t_x_1754                                            1 	(obj:20)
t_x_1758                                            1 	(obj:10)
t_x_1759                                            1 	(obj:50)
t_x_1760                                            1 	(obj:2)
t_x_1767                                            1 	(obj:14)
t_x_1772                                            1 	(obj:7)
t_x_1775                                            1 	(obj:23)
t_x_1777                                            1 	(obj:19)
t_x_1778                                            1 	(obj:20)
t_x_1780                                            1 	(obj:1)
t_x_1781                                            1 	(obj:7)
t_x_1784                                            1 	(obj:14)
t_x_1785                                            1 	(obj:8)
t_x_1786                                            1 	(obj:20)
t_x_1787                                            1 	(obj:17)
t_x_1789                                            1 	(obj:7)
t_x_1793                                            1 	(obj:3)
t_x_1794                                            1 	(obj:42)
t_x_1798                                            1 	(obj:12)
t_x_1802                                            1 	(obj:15)
t_x_1804                                            1 	(obj:6)
t_x_1810                                            1 	(obj:6)
t_x_1816                                            1 	(obj:5)
t_x_1820                                            1 	(obj:7)
t_x_1823                                            1 	(obj:49)
t_x_1827                                            1 	(obj:59)
t_x_1829                                            1 	(obj:53)
t_x_1833                                            1 	(obj:8)
t_x_1835                                            1 	(obj:13)
t_x_1836                                            1 	(obj:15)
t_x_1839                                            1 	(obj:20)
t_x_1841                                            1 	(obj:26)
t_x_1842                                            1 	(obj:18)
t_x_1847                                            1 	(obj:5)
t_x_1850                                            1 	(obj:12)
t_x_1851                                            1 	(obj:18)
t_x_1852                                            1 	(obj:50)
t_x_1853                                            1 	(obj:41)
t_x_1855                                            1 	(obj:28)
t_x_1856                                            1 	(obj:31)
t_x_1857                                            1 	(obj:2)
t_x_1861                                            1 	(obj:10)
t_x_1867                                            1 	(obj:5)
t_x_1871                                            1 	(obj:3)
t_x_1875                                            1 	(obj:66)
t_x_1877                                            1 	(obj:26)
t_x_1878                                            1 	(obj:26)
t_x_1880                                            1 	(obj:47)
t_x_1885                                            1 	(obj:16)
t_x_1888                                            1 	(obj:0)
t_x_1889                                            1 	(obj:19)
t_x_1896                                            1 	(obj:16)
t_x_1897                                            1 	(obj:5)
t_x_1898                                            1 	(obj:23)
t_x_1907                                            1 	(obj:8)
t_x_1909                                            1 	(obj:39)
t_x_1911                                            1 	(obj:5)
t_x_1915                                            1 	(obj:6)
t_x_1917                                            1 	(obj:10)
t_x_1920                                            1 	(obj:4)
t_x_1924                                            1 	(obj:23)
t_x_1931                                            1 	(obj:23)
t_x_1932                                            1 	(obj:54)
t_x_1936                                            1 	(obj:49)
t_x_1937                                            1 	(obj:58)
t_x_1938                                            1 	(obj:10)
t_x_1940                                            1 	(obj:11)
t_x_1942                                            1 	(obj:14)
t_x_1945                                            1 	(obj:43)
t_x_1948                                            1 	(obj:11)
t_x_1951                                            1 	(obj:3)
t_x_1957                                            1 	(obj:48)
t_x_1960                                            1 	(obj:17)
t_x_1961                                            1 	(obj:13)
t_x_1966                                            1 	(obj:24)
t_x_1970                                            1 	(obj:47)
t_x_1976                                            1 	(obj:16)
t_x_1981                                            1 	(obj:18)
t_x_1982                                            1 	(obj:14)
t_x_1985                                            1 	(obj:44)
t_x_1986                                            1 	(obj:34)
t_x_1995                                            1 	(obj:15)
